p cnf 88 252
-13 
14 
-15 
16 
-17 
18 
-19 
-20 
-21 
22 
23 
-24 
-25 
-31 
-26 1 25 
-26 1 7 
-26 7 25 
26 -1 -25 
26 -1 -7 
26 -7 -25 
-27 2 26 
-27 2 8 
-27 8 26 
27 -2 -26 
27 -2 -8 
27 -8 -26 
-28 3 27 
-28 3 9 
-28 9 27 
28 -3 -27 
28 -3 -9 
28 -9 -27 
-29 4 28 
-29 4 10 
-29 10 28 
29 -4 -28 
29 -4 -10 
29 -10 -28 
-30 5 29 
-30 5 11 
-30 11 29 
30 -5 -29 
30 -5 -11 
30 -11 -29 
-31 6 30 
-31 6 12 
-31 12 30 
31 -6 -30 
31 -6 -12 
31 -12 -30 
13 7 1 -25 
13 7 -1 25 
13 -7 1 25 
13 -7 -1 -25 
-13 7 1 25 
-13 7 -1 -25 
-13 -7 1 -25 
-13 -7 -1 25 
14 8 2 -26 
14 8 -2 26 
14 -8 2 26 
14 -8 -2 -26 
-14 8 2 26 
-14 8 -2 -26 
-14 -8 2 -26 
-14 -8 -2 26 
15 9 3 -27 
15 9 -3 27 
15 -9 3 27 
15 -9 -3 -27 
-15 9 3 27 
-15 9 -3 -27 
-15 -9 3 -27 
-15 -9 -3 27 
16 10 4 -28 
16 10 -4 28 
16 -10 4 28 
16 -10 -4 -28 
-16 10 4 28 
-16 10 -4 -28 
-16 -10 4 -28 
-16 -10 -4 28 
17 11 5 -29 
17 11 -5 29 
17 -11 5 29 
17 -11 -5 -29 
-17 11 5 29 
-17 11 -5 -29 
-17 -11 5 -29 
-17 -11 -5 29 
18 12 6 -30 
18 12 -6 30 
18 -12 6 30 
18 -12 -6 -30 
-18 12 6 30 
-18 12 -6 -30 
-18 -12 6 -30 
-18 -12 -6 30 
32 
-33 32 
-34 32 
-32 33 34 
35 -33 
6 -33 
33 -35 -6 
-12 -35 
12 35 
36 -34 
37 -34 
34 -36 -37 
38 -36 
39 -36 
36 -38 -39 
-40 38 
-6 38 
-38 40 6 
-12 -40 
12 40 
-12 39 
-41 39 
-39 12 41 
-6 -41 
6 41 
-42 37 
-43 37 
-37 42 43 
44 -42 
5 -42 
42 -44 -5 
-11 -44 
11 44 
45 -43 
46 -43 
43 -45 -46 
47 -45 
48 -45 
45 -47 -48 
-49 47 
-5 47 
-47 49 5 
-11 -49 
11 49 
-11 48 
-50 48 
-48 11 50 
-5 -50 
5 50 
-51 46 
-52 46 
-46 51 52 
53 -51 
4 -51 
51 -53 -4 
-10 -53 
10 53 
54 -52 
55 -52 
52 -54 -55 
56 -54 
57 -54 
54 -56 -57 
-58 56 
-4 56 
-56 58 4 
-10 -58 
10 58 
-10 57 
-59 57 
-57 10 59 
-4 -59 
4 59 
-60 55 
-61 55 
-55 60 61 
62 -60 
3 -60 
60 -62 -3 
-9 -62 
9 62 
63 -61 
64 -61 
61 -63 -64 
65 -63 
66 -63 
63 -65 -66 
-67 65 
-3 65 
-65 67 3 
-9 -67 
9 67 
-9 66 
-68 66 
-66 9 68 
-3 -68 
3 68 
-69 64 
-70 64 
-64 69 70 
71 -69 
2 -69 
69 -71 -2 
-8 -71 
8 71 
72 -70 
73 -70 
70 -72 -73 
74 -72 
75 -72 
72 -74 -75 
-76 74 
-2 74 
-74 76 2 
-8 -76 
8 76 
-8 75 
-77 75 
-75 8 77 
-2 -77 
2 77 
-78 73 
-79 73 
-73 78 79 
80 -78 
1 -78 
78 -80 -1 
-7 -80 
7 80 
81 -79 
82 -79 
79 -81 -82 
-83 81 
-1 81 
-81 83 1 
-7 -83 
7 83 
-7 82 
-84 82 
-82 7 84 
-1 -84 
1 84 
85 
5 -85 
86 -85 
85 -5 -86 
4 -86 
87 -86 
86 -4 -87 
-1 87 
-88 87 
-87 1 88 
-1 -88 
1 88 
